NAME : G100_1112_01
COMMENT : Generated CVRP instance (n=100)
TYPE : CVRP
DIMENSION : 101
EDGE_WEIGHT_TYPE : EUC_2D
CAPACITY : 7
NODE_COORD_SECTION
1    715  4   
2    169  744 
3    105  836 
4    936  99  
5    508  48  
6    319  57  
7    223  818 
8    866  110 
9    343  463 
10   386  49  
11   119  306 
12   617  67  
13   157  793 
14   862  615 
15   546  397 
16   35   538 
17   592  748 
18   942  342 
19   150  372 
20   822  874 
21   191  315 
22   527  413 
23   983  681 
24   498  624 
25   811  208 
26   452  53  
27   119  841 
28   906  354 
29   689  475 
30   363  884 
31   908  845 
32   131  378 
33   518  739 
34   4    710 
35   322  74  
36   229  993 
37   5    839 
38   412  159 
39   397  479 
40   941  505 
41   563  883 
42   490  151 
43   743  441 
44   51   173 
45   143  18  
46   582  453 
47   0    308 
48   283  489 
49   383  326 
50   404  1   
51   947  75  
52   436  118 
53   231  771 
54   481  40  
55   187  463 
56   691  225 
57   44   359 
58   216  636 
59   875  903 
60   834  612 
61   541  905 
62   273  114 
63   544  919 
64   796  230 
65   773  631 
66   729  695 
67   17   431 
68   126  310 
69   305  779 
70   272  83  
71   92   125 
72   735  777 
73   778  119 
74   584  59  
75   690  61  
76   154  11  
77   11   17  
78   662  72  
79   157  940 
80   274  0   
81   779  810 
82   283  1000
83   389  536 
84   29   937 
85   512  359 
86   641  824 
87   54   683 
88   468  97  
89   513  65  
90   417  625 
91   64   830 
92   573  170 
93   483  716 
94   960  79  
95   907  442 
96   832  131 
97   240  985 
98   102  69  
99   18   762 
100  189  180 
101  316  333 
DEMAND_SECTION
1    0   
2    1   
3    1   
4    1   
5    1   
6    1   
7    1   
8    1   
9    1   
10   1   
11   1   
12   1   
13   1   
14   1   
15   1   
16   1   
17   1   
18   1   
19   1   
20   1   
21   1   
22   1   
23   1   
24   1   
25   1   
26   1   
27   1   
28   1   
29   1   
30   1   
31   1   
32   1   
33   1   
34   1   
35   1   
36   1   
37   1   
38   1   
39   1   
40   1   
41   1   
42   1   
43   1   
44   1   
45   1   
46   1   
47   1   
48   1   
49   1   
50   1   
51   1   
52   1   
53   1   
54   1   
55   1   
56   1   
57   1   
58   1   
59   1   
60   1   
61   1   
62   1   
63   1   
64   1   
65   1   
66   1   
67   1   
68   1   
69   1   
70   1   
71   1   
72   1   
73   1   
74   1   
75   1   
76   1   
77   1   
78   1   
79   1   
80   1   
81   1   
82   1   
83   1   
84   1   
85   1   
86   1   
87   1   
88   1   
89   1   
90   1   
91   1   
92   1   
93   1   
94   1   
95   1   
96   1   
97   1   
98   1   
99   1   
100  1   
101  1   
DEPOT_SECTION
1
-1
EOF
